CMD:
./solvers/bin/cadical --plain --no-reduce -t 1600 ./data/cnfs//vgasim_imgfifo-p093/vgasim_imgfifo-p093.64.cnf

c --- [ banner ] -------------------------------------------------------------
c 
c CaDiCaL SAT Solver
c Copyright (c) 2016-2024
c A. Biere, M. Fleury, N. Froleyks, K. Fazekas, F. Pollitt, T. Faller
c JKU Linz, University of Freiburg, TU Wien
c 
c Version 2.1.3 5296d3d2a9bf48c154ab2acb5e44625776d821bf
c g++ (Gentoo 12.3.1_p20230526 p2) 12.3.1 20230526 -Wall -Wextra -O3 -DNDEBUG
c Sat Aug 9 07:26:21 PDT 2025 Linux cedar2.int.cedar.computecanada.ca 5.14.0-362.24.2.el9_3.x86_64 x86_64
c 
c --- [ limit ] --------------------------------------------------------------
c 
c setting time limit to 1600 seconds real time (due to '-t 1600')
c 
c --- [ parsing input ] ------------------------------------------------------
c 
c reading DIMACS file from './data/cnfs//vgasim_imgfifo-p093/vgasim_imgfifo-p093.64.cnf'
c opening file to read './data/cnfs//vgasim_imgfifo-p093/vgasim_imgfifo-p093.64.cnf'
c found 'p cnf 309993 895328' header
c parsed 895328 clauses in 0.13 seconds process time
c 
c --- [ options ] ------------------------------------------------------------
c 
c   --compact=false                (different from default 'true')
c   --decompose=false              (different from default 'true')
c   --deduplicate=false            (different from default 'true')
c   --elim=false                   (different from default 'true')
c   --probe=false                  (different from default 'true')
c   --reduce=false                 (different from default 'true')
c   --subsume=false                (different from default 'true')
c   --ternary=false                (different from default 'true')
c   --transred=false               (different from default 'true')
c   --vivify=false                 (different from default 'true')
c 
c --- [ solving ] ------------------------------------------------------------
c 
c time measured in process time since initialization
c 
c  seconds   reductions  redundant  irredundant
c          MB    restarts       trail       variables
c           level   conflicts       glue          remaining
c 
c *  0.13 139  0 0   0    0    0  0% 0 851727 257849 83%
c {  0.15 140  0 0   0    0    0  0% 0 851727 257849 83%
c i  0.19 142 163 0   2  126  110 28% 2 851727 256471 83%
c i  0.19 142 162 0   2  127  110 28% 2 851727 256442 83%
c i  0.19 142 161 0   2  128  110 28% 2 851727 256379 83%
c i  0.19 142 159 0   2  129  110 28% 2 851727 256375 83%
c i  0.20 142 116 0   2  228  181 26% 2 851727 256363 83%
c i  0.20 142 115 0   2  229  181 26% 2 851727 256351 83%
c i  0.20 142 115 0   2  231  182 26% 2 851727 256339 83%
c i  0.20 142 114 0   2  234  183 26% 2 851727 256294 83%
c i  0.20 142 113 0   2  237  184 26% 2 851727 256249 83%
c i  0.20 142 112 0   2  241  185 26% 2 851727 256237 83%
c i  0.20 142 111 0   2  246  189 26% 2 851727 256236 83%
c i  0.20 142 110 0   2  249  190 26% 2 851727 256224 83%
c i  0.20 142 109 0   2  255  194 26% 2 851727 256210 83%
c i  0.20 142 108 0   2  259  196 26% 2 851727 256169 83%
c i  0.20 142 108 0   2  261  196 26% 2 851727 256157 83%
c i  0.20 142 106 0   2  269  203 26% 2 851727 256147 83%
c i  0.20 142 104 0   2  282  213 26% 2 851727 256146 83%
c i  0.20 142 101 0   2  296  222 26% 2 851727 256134 83%
c 
c  seconds    reductions  redundant  irredundant
c          MB     restarts       trail       variables
c            level   conflicts       glue          remaining
c 
c i  0.20 142 101 0   2  297  222 26% 2 851727 256108 83%
c i  0.21 142 100 0   2  301  223 26% 2 851727 256095 83%
c i  0.21 142 99 0   2  310  228 26% 2 851727 256094 83%
c i  0.21 142 99 0   2  313  229 26% 2 851727 256084 83%
c i  0.21 142 97 0   2  329  241 26% 2 851727 256083 83%
c i  0.21 142 95 0   2  341  251 26% 2 851727 256073 83%
c i  0.21 142 94 0   2  350  258 26% 2 851727 256067 83%
c i  0.21 142 92 0   2  364  270 26% 2 851727 256063 83%
c i  0.21 142 89 0   3  381  275 26% 2 851727 256039 83%
c i  0.21 142 81 0   6  423  312 25% 2 851727 256005 83%
c i  0.21 142 80 0   6  426  314 25% 2 851727 255972 83%
c i  0.22 142 80 0   6  428  315 25% 2 851727 255926 83%
c i  0.22 142 79 0   6  431  317 25% 2 851727 255884 83%
c i  0.22 142 79 0   6  433  318 25% 2 851727 255740 82%
c i  0.22 142 78 0   6  435  319 25% 2 851727 255697 82%
c i  0.22 142 78 0   6  437  320 25% 2 851727 255674 82%
c i  0.22 142 78 0   6  438  320 25% 2 851727 255673 82%
c i  0.22 142 78 0   6  439  320 25% 2 851727 255617 82%
c i  0.22 142 78 0   6  453  332 25% 2 851727 255597 82%
c i  0.23 142 80 0   6  488  362 26% 2 851727 255596 82%
c 
c  seconds   reductions  redundant  irredundant
c          MB    restarts       trail       variables
c           level   conflicts       glue          remaining
c 
c i  0.23 142 80 0   6  490  363 26% 2 851727 255592 82%
c i  0.23 142 81 0   6  507  376 26% 2 851727 255497 82%
c i  0.23 142 81 0   6  508  376 26% 2 851727 254998 82%
c i  0.27 143 81 0  11  538  404 27% 2 851727 254765 82%
c i  0.28 143 81 0  12  540  404 27% 2 851727 254683 82%
c i  0.28 143 81 0  12  541  404 27% 2 851727 254674 82%
c i  0.29 143 80 0  14  546  408 27% 2 851727 254665 82%
c i  0.30 143 80 0  15  550  411 27% 2 851727 254656 82%
c i  0.30 143 80 0  16  551  411 27% 2 851727 254407 82%
c i  0.30 143 80 0  16  552  411 27% 2 851727 254266 82%
c i  0.33 143 74 0  28  600  456 27% 2 851727 253845 82%
c i  0.33 143 72 0  33  617  472 26% 2 851727 253819 82%
c i  0.36 143 67 0  44  687  535 26% 2 851727 253784 82%
c i  0.36 143 67 0  44  688  535 26% 2 851727 253762 82%
c i  0.37 144 66 0  44  713  554 26% 2 851727 253747 82%
c i  0.37 144 62 0  48  783  618 26% 2 851727 253738 82%
c i  0.37 144 62 0  48  786  620 26% 2 851727 253701 82%
c i  0.37 144 62 0  48  788  621 26% 2 851727 253692 82%
c i  0.38 144 61 0  48  791  623 26% 2 851727 253674 82%
c i  0.38 144 61 0  48  792  623 26% 2 851727 253665 82%
c 
c  seconds   reductions  redundant  irredundant
c          MB    restarts       trail       variables
c           level   conflicts       glue          remaining
c 
c i  0.38 144 61 0  48  794  624 26% 2 851727 253661 82%
c i  0.41 144 60 0  56  913  724 26% 2 851727 253605 82%
c i  0.41 144 58 0  60  939  748 26% 2 851727 253596 82%
c i  0.42 144 58 0  61  945  751 26% 2 851727 253557 82%
c i  0.42 144 58 0  61  946  751 26% 2 851727 253548 82%
c }  0.44 144 56 0  74 1000  802 26% 2 851727 253548 82%
c [  0.44 144  0 0  74 1000  802  0% 0 851727 253548 82%
c O  0.45 144 332 0  74 1003  805 32% 4 851727 253548 82%
c i  0.56 144 28 0  74 1276 1054 31% 4 851727 253545 82%
c i  0.60 144 27 0  74 1284 1060 31% 4 851727 253221 82%
c i  0.61 144 27 0  74 1285 1060 31% 4 851727 253155 82%
c ]  0.63 144 27 0  74 1287 1060 31% 4 851727 167739 54%
c 0  0.63 144 27 0  74 1287 1060 31% 4 851727 167739 54%
c 
c --- [ result ] -------------------------------------------------------------
c 
s UNSATISFIABLE
c 
c --- [ run-time profiling ] -------------------------------------------------
c 
c process time taken by individual solving procedures
c (percentage relative to process time for solving)
c 
c         0.49   99.98% search
c         0.29   58.71% unstable
c         0.19   38.79% stable
c         0.13   27.06% parse
c         0.01    2.47% lucky
c         0.00    0.00% simplify
c   =================================
c         0.49   78.65% solve
c 
c last line shows process time for solving
c (percentage relative to total process time)
c 
c --- [ statistics ] ---------------------------------------------------------
c 
c chronological:               647        50.27 %  of conflicts
c conflicts:                  1287      2610.82    per second
c decisions:                  4975     10092.32    per second
c fixed:                    142206        45.87 %  of all variables
c learned:                    1197        93.01 %  per conflict
c learned_lits:              12917       100.00 %  learned literals
c minimized:                     0         0.00 %  learned literals
c shrunken:                   3157        24.44 %  learned literals
c minishrunken:               1190         9.21 %  learned literals
c otfs:                        108         8.39 %  of conflict
c propagations:            5658914        11.48 M  per second
c rephased:                      1      1287.00    interval
c restarts:                     74        17.39    interval
c stabilizing:                   1        22.30 %  of conflicts
c subsumed:                     66         0.01 %  of all clauses
c strengthened:                108         0.01 %  of all clauses
c 
c seconds are measured in process time for solving
c 
c --- [ resources ] ----------------------------------------------------------
c 
c total process time since initialization:         0.63    seconds
c total real time since initialization:            0.64    seconds
c maximum resident set size of process:          141.97    MB
c 
c --- [ shutting down ] ------------------------------------------------------
c 
c exit 20
